c description: Random 3-CNF over 15 variables and 65 clauses
c generator: CNFgen (0.9.0)
c copyright: (C) 2012-2020 Massimo Lauria <massimo.lauria@uniroma1.it>
c url: https://massimolauria.net/cnfgen
c
p cnf 15 65
-3 -6 9 0
6 -12 15 0
5 -10 -14 0
-4 5 7 0
5 -8 -11 0
4 10 -11 0
3 7 10 0
-12 -13 15 0
8 9 14 0
-7 11 12 0
8 -11 -13 0
-4 8 -15 0
1 -4 -15 0
-2 7 -10 0
3 -5 -7 0
9 -14 15 0
-3 4 -14 0
8 12 15 0
3 4 8 0
-4 6 -14 0
4 9 10 0
-3 -5 15 0
-8 12 -15 0
1 2 -4 0
4 -5 6 0
9 -11 13 0
-6 8 12 0
-3 -7 9 0
-2 9 11 0
-3 5 -13 0
3 7 -9 0
-3 8 -11 0
8 12 -14 0
-3 -10 12 0
2 -11 -14 0
5 -12 -14 0
-1 -2 -9 0
-1 -2 -3 0
4 -5 10 0
-5 8 -12 0
1 -6 9 0
-8 -11 13 0
6 10 -11 0
-1 4 -7 0
3 -7 8 0
-5 7 -8 0
-8 -10 -15 0
3 -10 11 0
4 5 6 0
-6 -12 -13 0
5 -10 14 0
-1 8 -11 0
4 -8 -12 0
7 -14 15 0
10 13 15 0
5 10 13 0
3 6 -9 0
-2 5 -6 0
4 -10 -11 0
6 -8 10 0
1 9 -12 0
-3 -7 11 0
5 -8 13 0
-8 -11 15 0
-6 8 -15 0